NAME : sim71.88740.tour
COMMENT : Length = 88740
COMMENT : Found by LKH [Keld Helsgaun] Sat Sep 15 18:06:20 2018
TYPE : TOUR
DIMENSION : 71
TOUR_SECTION
1
3
18
58
23
6
45
60
40
55
12
19
67
57
46
16
39
65
34
69
11
59
28
25
53
8
48
42
26
24
15
49
62
31
71
70
35
4
27
9
43
64
37
7
33
50
56
68
17
5
14
29
21
66
44
30
47
32
2
51
22
10
13
38
63
36
41
61
20
52
54
-1
EOF
